* #variable= 1288 #constraint= 1235 
-1 x29 +1 x1 >= 0 ;
-1 x29 +1 x15 >= 0 ;
+1 x29 -1 x1 -1 x15 >= -1 ;
+1 x15 = 0 ;
-1 x30 +1 x2 >= 0 ;
-1 x30 +1 x16 >= 0 ;
+1 x30 -1 x2 -1 x16 >= -1 ;
+1 x16 = 1 ;
-1 x31 +1 x3 >= 0 ;
-1 x31 +1 x17 >= 0 ;
+1 x31 -1 x3 -1 x17 >= -1 ;
+1 x17 = 0 ;
-1 x32 +1 x4 >= 0 ;
-1 x32 +1 x18 >= 0 ;
+1 x32 -1 x4 -1 x18 >= -1 ;
+1 x18 = 1 ;
-1 x33 +1 x5 >= 0 ;
-1 x33 +1 x19 >= 0 ;
+1 x33 -1 x5 -1 x19 >= -1 ;
+1 x19 = 0 ;
-1 x34 +1 x6 >= 0 ;
-1 x34 +1 x20 >= 0 ;
+1 x34 -1 x6 -1 x20 >= -1 ;
+1 x20 = 1 ;
-1 x35 +1 x7 >= 0 ;
-1 x35 +1 x21 >= 0 ;
+1 x35 -1 x7 -1 x21 >= -1 ;
+1 x21 = 0 ;
-1 x36 +1 x8 >= 0 ;
-1 x36 +1 x22 >= 0 ;
+1 x36 -1 x8 -1 x22 >= -1 ;
+1 x22 = 1 ;
-1 x37 +1 x9 >= 0 ;
-1 x37 +1 x23 >= 0 ;
+1 x37 -1 x9 -1 x23 >= -1 ;
+1 x23 = 0 ;
-1 x38 +1 x10 >= 0 ;
-1 x38 +1 x24 >= 0 ;
+1 x38 -1 x10 -1 x24 >= -1 ;
+1 x24 = 1 ;
-1 x39 +1 x11 >= 0 ;
-1 x39 +1 x25 >= 0 ;
+1 x39 -1 x11 -1 x25 >= -1 ;
+1 x25 = 0 ;
-1 x40 +1 x12 >= 0 ;
-1 x40 +1 x26 >= 0 ;
+1 x40 -1 x12 -1 x26 >= -1 ;
+1 x26 = 1 ;
-1 x41 +1 x13 >= 0 ;
-1 x41 +1 x27 >= 0 ;
+1 x41 -1 x13 -1 x27 >= -1 ;
+1 x27 = 0 ;
-1 x42 +1 x14 >= 0 ;
-1 x42 +1 x28 >= 0 ;
+1 x42 -1 x14 -1 x28 >= -1 ;
+1 x28 = 1 ;
-1 x57 +1 x15 >= 0 ;
-1 x57 +1 x43 >= 0 ;
+1 x57 -1 x15 -1 x43 >= -1 ;
+1 x57 +2 x71 +4 x85 +8 x99 +16 x113 +32 x127 +64 x141 +128 x155 +256 x169 +512 x183 +1024 x197 +2048 x211 +4096 x225 +8192 x239 +2 x58 +4 x72 +8 x86 +16 x100 +32 x114 +64 x128 +128 x142 +256 x156 +512 x170 +1024 x184 +2048 x198 +4096 x212 +8192 x226 +16384 x240 +4 x59 +8 x73 +16 x87 +32 x101 +64 x115 +128 x129 +256 x143 +512 x157 +1024 x171 +2048 x185 +4096 x199 +8192 x213 +16384 x227 +32768 x241 +8 x60 +16 x74 +32 x88 +64 x102 +128 x116 +256 x130 +512 x144 +1024 x158 +2048 x172 +4096 x186 +8192 x200 +16384 x214 +32768 x228 +65536 x242 +16 x61 +32 x75 +64 x89 +128 x103 +256 x117 +512 x131 +1024 x145 +2048 x159 +4096 x173 +8192 x187 +16384 x201 +32768 x215 +65536 x229 +131072 x243 +32 x62 +64 x76 +128 x90 +256 x104 +512 x118 +1024 x132 +2048 x146 +4096 x160 +8192 x174 +16384 x188 +32768 x202 +65536 x216 +131072 x230 +262144 x244 +64 x63 +128 x77 +256 x91 +512 x105 +1024 x119 +2048 x133 +4096 x147 +8192 x161 +16384 x175 +32768 x189 +65536 x203 +131072 x217 +262144 x231 +524288 x245 +128 x64 +256 x78 +512 x92 +1024 x106 +2048 x120 +4096 x134 +8192 x148 +16384 x162 +32768 x176 +65536 x190 +131072 x204 +262144 x218 +524288 x232 +1048576 x246 +256 x65 +512 x79 +1024 x93 +2048 x107 +4096 x121 +8192 x135 +16384 x149 +32768 x163 +65536 x177 +131072 x191 +262144 x205 +524288 x219 +1048576 x233 +2097152 x247 +512 x66 +1024 x80 +2048 x94 +4096 x108 +8192 x122 +16384 x136 +32768 x150 +65536 x164 +131072 x178 +262144 x192 +524288 x206 +1048576 x220 +2097152 x234 +4194304 x248 +1024 x67 +2048 x81 +4096 x95 +8192 x109 +16384 x123 +32768 x137 +65536 x151 +131072 x165 +262144 x179 +524288 x193 +1048576 x207 +2097152 x221 +4194304 x235 +8388608 x249 +2048 x68 +4096 x82 +8192 x96 +16384 x110 +32768 x124 +65536 x138 +131072 x152 +262144 x166 +524288 x180 +1048576 x194 +2097152 x208 +4194304 x222 +8388608 x236 +16777216 x250 +4096 x69 +8192 x83 +16384 x97 +32768 x111 +65536 x125 +131072 x139 +262144 x153 +524288 x167 +1048576 x181 +2097152 x195 +4194304 x209 +8388608 x223 +16777216 x237 +33554432 x251 +8192 x70 +16384 x84 +32768 x98 +65536 x112 +131072 x126 +262144 x140 +524288 x154 +1048576 x168 +2097152 x182 +4194304 x196 +8388608 x210 +16777216 x224 +33554432 x238 +67108864 x252 -1 x1233 -2 x1234 -4 x1235 -8 x1236 -16 x1237 -32 x1238 -64 x1239 -128 x1240 -256 x1241 -512 x1242 -1024 x1243 -2048 x1244 -4096 x1245 -8192 x1246 -16384 x1247 -32768 x1248 -65536 x1249 -131072 x1250 -262144 x1251 -524288 x1252 -1048576 x1253 -2097152 x1254 -4194304 x1255 -8388608 x1256 -16777216 x1257 -33554432 x1258 -67108864 x1259 -134217728 x1260 = 0; 
-1 x645 +1 x29 >= 0 ;
-1 x645 +1 x43 >= 0 ;
+1 x645 -1 x29 -1 x43 >= -1 ;
+1 x645 +2 x659 +4 x673 +8 x687 +16 x701 +32 x715 +64 x729 +128 x743 +256 x757 +512 x771 +1024 x785 +2048 x799 +4096 x813 +8192 x827 +2 x646 +4 x660 +8 x674 +16 x688 +32 x702 +64 x716 +128 x730 +256 x744 +512 x758 +1024 x772 +2048 x786 +4096 x800 +8192 x814 +16384 x828 +4 x647 +8 x661 +16 x675 +32 x689 +64 x703 +128 x717 +256 x731 +512 x745 +1024 x759 +2048 x773 +4096 x787 +8192 x801 +16384 x815 +32768 x829 +8 x648 +16 x662 +32 x676 +64 x690 +128 x704 +256 x718 +512 x732 +1024 x746 +2048 x760 +4096 x774 +8192 x788 +16384 x802 +32768 x816 +65536 x830 +16 x649 +32 x663 +64 x677 +128 x691 +256 x705 +512 x719 +1024 x733 +2048 x747 +4096 x761 +8192 x775 +16384 x789 +32768 x803 +65536 x817 +131072 x831 +32 x650 +64 x664 +128 x678 +256 x692 +512 x706 +1024 x720 +2048 x734 +4096 x748 +8192 x762 +16384 x776 +32768 x790 +65536 x804 +131072 x818 +262144 x832 +64 x651 +128 x665 +256 x679 +512 x693 +1024 x707 +2048 x721 +4096 x735 +8192 x749 +16384 x763 +32768 x777 +65536 x791 +131072 x805 +262144 x819 +524288 x833 +128 x652 +256 x666 +512 x680 +1024 x694 +2048 x708 +4096 x722 +8192 x736 +16384 x750 +32768 x764 +65536 x778 +131072 x792 +262144 x806 +524288 x820 +1048576 x834 +256 x653 +512 x667 +1024 x681 +2048 x695 +4096 x709 +8192 x723 +16384 x737 +32768 x751 +65536 x765 +131072 x779 +262144 x793 +524288 x807 +1048576 x821 +2097152 x835 +512 x654 +1024 x668 +2048 x682 +4096 x696 +8192 x710 +16384 x724 +32768 x738 +65536 x752 +131072 x766 +262144 x780 +524288 x794 +1048576 x808 +2097152 x822 +4194304 x836 +1024 x655 +2048 x669 +4096 x683 +8192 x697 +16384 x711 +32768 x725 +65536 x739 +131072 x753 +262144 x767 +524288 x781 +1048576 x795 +2097152 x809 +4194304 x823 +8388608 x837 +2048 x656 +4096 x670 +8192 x684 +16384 x698 +32768 x712 +65536 x726 +131072 x740 +262144 x754 +524288 x768 +1048576 x782 +2097152 x796 +4194304 x810 +8388608 x824 +16777216 x838 +4096 x657 +8192 x671 +16384 x685 +32768 x699 +65536 x713 +131072 x727 +262144 x741 +524288 x755 +1048576 x769 +2097152 x783 +4194304 x797 +8388608 x811 +16777216 x825 +33554432 x839 +8192 x658 +16384 x672 +32768 x686 +65536 x700 +131072 x714 +262144 x728 +524288 x742 +1048576 x756 +2097152 x770 +4194304 x784 +8388608 x798 +16777216 x812 +33554432 x826 +67108864 x840 -1 x1261 -2 x1262 -4 x1263 -8 x1264 -16 x1265 -32 x1266 -64 x1267 -128 x1268 -256 x1269 -512 x1270 -1024 x1271 -2048 x1272 -4096 x1273 -8192 x1274 -16384 x1275 -32768 x1276 -65536 x1277 -131072 x1278 -262144 x1279 -524288 x1280 -1048576 x1281 -2097152 x1282 -4194304 x1283 -8388608 x1284 -16777216 x1285 -33554432 x1286 -67108864 x1287 -134217728 x1288 = 0; 
+1 x1261 -1 x1233 +2 x1262 -2 x1234 +4 x1263 -4 x1235 +8 x1264 -8 x1236 +16 x1265 -16 x1237 +32 x1266 -32 x1238 +64 x1267 -64 x1239 +128 x1268 -128 x1240 +256 x1269 -256 x1241 +512 x1270 -512 x1242 +1024 x1271 -1024 x1243 +2048 x1272 -2048 x1244 +4096 x1273 -4096 x1245 +8192 x1274 -8192 x1246 +16384 x1275 -16384 x1247 +32768 x1276 -32768 x1248 +65536 x1277 -65536 x1249 +131072 x1278 -131072 x1250 +262144 x1279 -262144 x1251 +524288 x1280 -524288 x1252 +1048576 x1281 -1048576 x1253 +2097152 x1282 -2097152 x1254 +4194304 x1283 -4194304 x1255 +8388608 x1284 -8388608 x1256 +16777216 x1285 -16777216 x1257 +33554432 x1286 -33554432 x1258 +67108864 x1287 -67108864 x1259 +134217728 x1288 -134217728 x1260 >= 1 ;
-1 x71 +1 x16 >= 0 ;
-1 x71 +1 x43 >= 0 ;
+1 x71 -1 x16 -1 x43 >= -1 ;
-1 x58 +1 x15 >= 0 ;
-1 x58 +1 x44 >= 0 ;
+1 x58 -1 x15 -1 x44 >= -1 ;
-1 x659 +1 x30 >= 0 ;
-1 x659 +1 x43 >= 0 ;
+1 x659 -1 x30 -1 x43 >= -1 ;
-1 x646 +1 x29 >= 0 ;
-1 x646 +1 x44 >= 0 ;
+1 x646 -1 x29 -1 x44 >= -1 ;
-1 x85 +1 x17 >= 0 ;
-1 x85 +1 x43 >= 0 ;
+1 x85 -1 x17 -1 x43 >= -1 ;
-1 x72 +1 x16 >= 0 ;
-1 x72 +1 x44 >= 0 ;
+1 x72 -1 x16 -1 x44 >= -1 ;
-1 x59 +1 x15 >= 0 ;
-1 x59 +1 x45 >= 0 ;
+1 x59 -1 x15 -1 x45 >= -1 ;
-1 x673 +1 x31 >= 0 ;
-1 x673 +1 x43 >= 0 ;
+1 x673 -1 x31 -1 x43 >= -1 ;
-1 x660 +1 x30 >= 0 ;
-1 x660 +1 x44 >= 0 ;
+1 x660 -1 x30 -1 x44 >= -1 ;
-1 x647 +1 x29 >= 0 ;
-1 x647 +1 x45 >= 0 ;
+1 x647 -1 x29 -1 x45 >= -1 ;
-1 x99 +1 x18 >= 0 ;
-1 x99 +1 x43 >= 0 ;
+1 x99 -1 x18 -1 x43 >= -1 ;
-1 x86 +1 x17 >= 0 ;
-1 x86 +1 x44 >= 0 ;
+1 x86 -1 x17 -1 x44 >= -1 ;
-1 x73 +1 x16 >= 0 ;
-1 x73 +1 x45 >= 0 ;
+1 x73 -1 x16 -1 x45 >= -1 ;
-1 x60 +1 x15 >= 0 ;
-1 x60 +1 x46 >= 0 ;
+1 x60 -1 x15 -1 x46 >= -1 ;
-1 x687 +1 x32 >= 0 ;
-1 x687 +1 x43 >= 0 ;
+1 x687 -1 x32 -1 x43 >= -1 ;
-1 x674 +1 x31 >= 0 ;
-1 x674 +1 x44 >= 0 ;
+1 x674 -1 x31 -1 x44 >= -1 ;
-1 x661 +1 x30 >= 0 ;
-1 x661 +1 x45 >= 0 ;
+1 x661 -1 x30 -1 x45 >= -1 ;
-1 x648 +1 x29 >= 0 ;
-1 x648 +1 x46 >= 0 ;
+1 x648 -1 x29 -1 x46 >= -1 ;
-1 x113 +1 x19 >= 0 ;
-1 x113 +1 x43 >= 0 ;
+1 x113 -1 x19 -1 x43 >= -1 ;
-1 x100 +1 x18 >= 0 ;
-1 x100 +1 x44 >= 0 ;
+1 x100 -1 x18 -1 x44 >= -1 ;
-1 x87 +1 x17 >= 0 ;
-1 x87 +1 x45 >= 0 ;
+1 x87 -1 x17 -1 x45 >= -1 ;
-1 x74 +1 x16 >= 0 ;
-1 x74 +1 x46 >= 0 ;
+1 x74 -1 x16 -1 x46 >= -1 ;
-1 x61 +1 x15 >= 0 ;
-1 x61 +1 x47 >= 0 ;
+1 x61 -1 x15 -1 x47 >= -1 ;
-1 x701 +1 x33 >= 0 ;
-1 x701 +1 x43 >= 0 ;
+1 x701 -1 x33 -1 x43 >= -1 ;
-1 x688 +1 x32 >= 0 ;
-1 x688 +1 x44 >= 0 ;
+1 x688 -1 x32 -1 x44 >= -1 ;
-1 x675 +1 x31 >= 0 ;
-1 x675 +1 x45 >= 0 ;
+1 x675 -1 x31 -1 x45 >= -1 ;
-1 x662 +1 x30 >= 0 ;
-1 x662 +1 x46 >= 0 ;
+1 x662 -1 x30 -1 x46 >= -1 ;
-1 x649 +1 x29 >= 0 ;
-1 x649 +1 x47 >= 0 ;
+1 x649 -1 x29 -1 x47 >= -1 ;
-1 x127 +1 x20 >= 0 ;
-1 x127 +1 x43 >= 0 ;
+1 x127 -1 x20 -1 x43 >= -1 ;
-1 x114 +1 x19 >= 0 ;
-1 x114 +1 x44 >= 0 ;
+1 x114 -1 x19 -1 x44 >= -1 ;
-1 x101 +1 x18 >= 0 ;
-1 x101 +1 x45 >= 0 ;
+1 x101 -1 x18 -1 x45 >= -1 ;
-1 x88 +1 x17 >= 0 ;
-1 x88 +1 x46 >= 0 ;
+1 x88 -1 x17 -1 x46 >= -1 ;
-1 x75 +1 x16 >= 0 ;
-1 x75 +1 x47 >= 0 ;
+1 x75 -1 x16 -1 x47 >= -1 ;
-1 x62 +1 x15 >= 0 ;
-1 x62 +1 x48 >= 0 ;
+1 x62 -1 x15 -1 x48 >= -1 ;
-1 x715 +1 x34 >= 0 ;
-1 x715 +1 x43 >= 0 ;
+1 x715 -1 x34 -1 x43 >= -1 ;
-1 x702 +1 x33 >= 0 ;
-1 x702 +1 x44 >= 0 ;
+1 x702 -1 x33 -1 x44 >= -1 ;
-1 x689 +1 x32 >= 0 ;
-1 x689 +1 x45 >= 0 ;
+1 x689 -1 x32 -1 x45 >= -1 ;
-1 x676 +1 x31 >= 0 ;
-1 x676 +1 x46 >= 0 ;
+1 x676 -1 x31 -1 x46 >= -1 ;
-1 x663 +1 x30 >= 0 ;
-1 x663 +1 x47 >= 0 ;
+1 x663 -1 x30 -1 x47 >= -1 ;
-1 x650 +1 x29 >= 0 ;
-1 x650 +1 x48 >= 0 ;
+1 x650 -1 x29 -1 x48 >= -1 ;
-1 x141 +1 x21 >= 0 ;
-1 x141 +1 x43 >= 0 ;
+1 x141 -1 x21 -1 x43 >= -1 ;
-1 x128 +1 x20 >= 0 ;
-1 x128 +1 x44 >= 0 ;
+1 x128 -1 x20 -1 x44 >= -1 ;
-1 x115 +1 x19 >= 0 ;
-1 x115 +1 x45 >= 0 ;
+1 x115 -1 x19 -1 x45 >= -1 ;
-1 x102 +1 x18 >= 0 ;
-1 x102 +1 x46 >= 0 ;
+1 x102 -1 x18 -1 x46 >= -1 ;
-1 x89 +1 x17 >= 0 ;
-1 x89 +1 x47 >= 0 ;
+1 x89 -1 x17 -1 x47 >= -1 ;
-1 x76 +1 x16 >= 0 ;
-1 x76 +1 x48 >= 0 ;
+1 x76 -1 x16 -1 x48 >= -1 ;
-1 x63 +1 x15 >= 0 ;
-1 x63 +1 x49 >= 0 ;
+1 x63 -1 x15 -1 x49 >= -1 ;
-1 x729 +1 x35 >= 0 ;
-1 x729 +1 x43 >= 0 ;
+1 x729 -1 x35 -1 x43 >= -1 ;
-1 x716 +1 x34 >= 0 ;
-1 x716 +1 x44 >= 0 ;
+1 x716 -1 x34 -1 x44 >= -1 ;
-1 x703 +1 x33 >= 0 ;
-1 x703 +1 x45 >= 0 ;
+1 x703 -1 x33 -1 x45 >= -1 ;
-1 x690 +1 x32 >= 0 ;
-1 x690 +1 x46 >= 0 ;
+1 x690 -1 x32 -1 x46 >= -1 ;
-1 x677 +1 x31 >= 0 ;
-1 x677 +1 x47 >= 0 ;
+1 x677 -1 x31 -1 x47 >= -1 ;
-1 x664 +1 x30 >= 0 ;
-1 x664 +1 x48 >= 0 ;
+1 x664 -1 x30 -1 x48 >= -1 ;
-1 x651 +1 x29 >= 0 ;
-1 x651 +1 x49 >= 0 ;
+1 x651 -1 x29 -1 x49 >= -1 ;
-1 x155 +1 x22 >= 0 ;
-1 x155 +1 x43 >= 0 ;
+1 x155 -1 x22 -1 x43 >= -1 ;
-1 x142 +1 x21 >= 0 ;
-1 x142 +1 x44 >= 0 ;
+1 x142 -1 x21 -1 x44 >= -1 ;
-1 x129 +1 x20 >= 0 ;
-1 x129 +1 x45 >= 0 ;
+1 x129 -1 x20 -1 x45 >= -1 ;
-1 x116 +1 x19 >= 0 ;
-1 x116 +1 x46 >= 0 ;
+1 x116 -1 x19 -1 x46 >= -1 ;
-1 x103 +1 x18 >= 0 ;
-1 x103 +1 x47 >= 0 ;
+1 x103 -1 x18 -1 x47 >= -1 ;
-1 x90 +1 x17 >= 0 ;
-1 x90 +1 x48 >= 0 ;
+1 x90 -1 x17 -1 x48 >= -1 ;
-1 x77 +1 x16 >= 0 ;
-1 x77 +1 x49 >= 0 ;
+1 x77 -1 x16 -1 x49 >= -1 ;
-1 x64 +1 x15 >= 0 ;
-1 x64 +1 x50 >= 0 ;
+1 x64 -1 x15 -1 x50 >= -1 ;
-1 x743 +1 x36 >= 0 ;
-1 x743 +1 x43 >= 0 ;
+1 x743 -1 x36 -1 x43 >= -1 ;
-1 x730 +1 x35 >= 0 ;
-1 x730 +1 x44 >= 0 ;
+1 x730 -1 x35 -1 x44 >= -1 ;
-1 x717 +1 x34 >= 0 ;
-1 x717 +1 x45 >= 0 ;
+1 x717 -1 x34 -1 x45 >= -1 ;
-1 x704 +1 x33 >= 0 ;
-1 x704 +1 x46 >= 0 ;
+1 x704 -1 x33 -1 x46 >= -1 ;
-1 x691 +1 x32 >= 0 ;
-1 x691 +1 x47 >= 0 ;
+1 x691 -1 x32 -1 x47 >= -1 ;
-1 x678 +1 x31 >= 0 ;
-1 x678 +1 x48 >= 0 ;
+1 x678 -1 x31 -1 x48 >= -1 ;
-1 x665 +1 x30 >= 0 ;
-1 x665 +1 x49 >= 0 ;
+1 x665 -1 x30 -1 x49 >= -1 ;
-1 x652 +1 x29 >= 0 ;
-1 x652 +1 x50 >= 0 ;
+1 x652 -1 x29 -1 x50 >= -1 ;
-1 x169 +1 x23 >= 0 ;
-1 x169 +1 x43 >= 0 ;
+1 x169 -1 x23 -1 x43 >= -1 ;
-1 x156 +1 x22 >= 0 ;
-1 x156 +1 x44 >= 0 ;
+1 x156 -1 x22 -1 x44 >= -1 ;
-1 x143 +1 x21 >= 0 ;
-1 x143 +1 x45 >= 0 ;
+1 x143 -1 x21 -1 x45 >= -1 ;
-1 x130 +1 x20 >= 0 ;
-1 x130 +1 x46 >= 0 ;
+1 x130 -1 x20 -1 x46 >= -1 ;
-1 x117 +1 x19 >= 0 ;
-1 x117 +1 x47 >= 0 ;
+1 x117 -1 x19 -1 x47 >= -1 ;
-1 x104 +1 x18 >= 0 ;
-1 x104 +1 x48 >= 0 ;
+1 x104 -1 x18 -1 x48 >= -1 ;
-1 x91 +1 x17 >= 0 ;
-1 x91 +1 x49 >= 0 ;
+1 x91 -1 x17 -1 x49 >= -1 ;
-1 x78 +1 x16 >= 0 ;
-1 x78 +1 x50 >= 0 ;
+1 x78 -1 x16 -1 x50 >= -1 ;
-1 x65 +1 x15 >= 0 ;
-1 x65 +1 x51 >= 0 ;
+1 x65 -1 x15 -1 x51 >= -1 ;
-1 x757 +1 x37 >= 0 ;
-1 x757 +1 x43 >= 0 ;
+1 x757 -1 x37 -1 x43 >= -1 ;
-1 x744 +1 x36 >= 0 ;
-1 x744 +1 x44 >= 0 ;
+1 x744 -1 x36 -1 x44 >= -1 ;
-1 x731 +1 x35 >= 0 ;
-1 x731 +1 x45 >= 0 ;
+1 x731 -1 x35 -1 x45 >= -1 ;
-1 x718 +1 x34 >= 0 ;
-1 x718 +1 x46 >= 0 ;
+1 x718 -1 x34 -1 x46 >= -1 ;
-1 x705 +1 x33 >= 0 ;
-1 x705 +1 x47 >= 0 ;
+1 x705 -1 x33 -1 x47 >= -1 ;
-1 x692 +1 x32 >= 0 ;
-1 x692 +1 x48 >= 0 ;
+1 x692 -1 x32 -1 x48 >= -1 ;
-1 x679 +1 x31 >= 0 ;
-1 x679 +1 x49 >= 0 ;
+1 x679 -1 x31 -1 x49 >= -1 ;
-1 x666 +1 x30 >= 0 ;
-1 x666 +1 x50 >= 0 ;
+1 x666 -1 x30 -1 x50 >= -1 ;
-1 x653 +1 x29 >= 0 ;
-1 x653 +1 x51 >= 0 ;
+1 x653 -1 x29 -1 x51 >= -1 ;
-1 x183 +1 x24 >= 0 ;
-1 x183 +1 x43 >= 0 ;
+1 x183 -1 x24 -1 x43 >= -1 ;
-1 x170 +1 x23 >= 0 ;
-1 x170 +1 x44 >= 0 ;
+1 x170 -1 x23 -1 x44 >= -1 ;
-1 x157 +1 x22 >= 0 ;
-1 x157 +1 x45 >= 0 ;
+1 x157 -1 x22 -1 x45 >= -1 ;
-1 x144 +1 x21 >= 0 ;
-1 x144 +1 x46 >= 0 ;
+1 x144 -1 x21 -1 x46 >= -1 ;
-1 x131 +1 x20 >= 0 ;
-1 x131 +1 x47 >= 0 ;
+1 x131 -1 x20 -1 x47 >= -1 ;
-1 x118 +1 x19 >= 0 ;
-1 x118 +1 x48 >= 0 ;
+1 x118 -1 x19 -1 x48 >= -1 ;
-1 x105 +1 x18 >= 0 ;
-1 x105 +1 x49 >= 0 ;
+1 x105 -1 x18 -1 x49 >= -1 ;
-1 x92 +1 x17 >= 0 ;
-1 x92 +1 x50 >= 0 ;
+1 x92 -1 x17 -1 x50 >= -1 ;
-1 x79 +1 x16 >= 0 ;
-1 x79 +1 x51 >= 0 ;
+1 x79 -1 x16 -1 x51 >= -1 ;
-1 x66 +1 x15 >= 0 ;
-1 x66 +1 x52 >= 0 ;
+1 x66 -1 x15 -1 x52 >= -1 ;
-1 x771 +1 x38 >= 0 ;
-1 x771 +1 x43 >= 0 ;
+1 x771 -1 x38 -1 x43 >= -1 ;
-1 x758 +1 x37 >= 0 ;
-1 x758 +1 x44 >= 0 ;
+1 x758 -1 x37 -1 x44 >= -1 ;
-1 x745 +1 x36 >= 0 ;
-1 x745 +1 x45 >= 0 ;
+1 x745 -1 x36 -1 x45 >= -1 ;
-1 x732 +1 x35 >= 0 ;
-1 x732 +1 x46 >= 0 ;
+1 x732 -1 x35 -1 x46 >= -1 ;
-1 x719 +1 x34 >= 0 ;
-1 x719 +1 x47 >= 0 ;
+1 x719 -1 x34 -1 x47 >= -1 ;
-1 x706 +1 x33 >= 0 ;
-1 x706 +1 x48 >= 0 ;
+1 x706 -1 x33 -1 x48 >= -1 ;
-1 x693 +1 x32 >= 0 ;
-1 x693 +1 x49 >= 0 ;
+1 x693 -1 x32 -1 x49 >= -1 ;
-1 x680 +1 x31 >= 0 ;
-1 x680 +1 x50 >= 0 ;
+1 x680 -1 x31 -1 x50 >= -1 ;
-1 x667 +1 x30 >= 0 ;
-1 x667 +1 x51 >= 0 ;
+1 x667 -1 x30 -1 x51 >= -1 ;
-1 x654 +1 x29 >= 0 ;
-1 x654 +1 x52 >= 0 ;
+1 x654 -1 x29 -1 x52 >= -1 ;
-1 x197 +1 x25 >= 0 ;
-1 x197 +1 x43 >= 0 ;
+1 x197 -1 x25 -1 x43 >= -1 ;
-1 x184 +1 x24 >= 0 ;
-1 x184 +1 x44 >= 0 ;
+1 x184 -1 x24 -1 x44 >= -1 ;
-1 x171 +1 x23 >= 0 ;
-1 x171 +1 x45 >= 0 ;
+1 x171 -1 x23 -1 x45 >= -1 ;
-1 x158 +1 x22 >= 0 ;
-1 x158 +1 x46 >= 0 ;
+1 x158 -1 x22 -1 x46 >= -1 ;
-1 x145 +1 x21 >= 0 ;
-1 x145 +1 x47 >= 0 ;
+1 x145 -1 x21 -1 x47 >= -1 ;
-1 x132 +1 x20 >= 0 ;
-1 x132 +1 x48 >= 0 ;
+1 x132 -1 x20 -1 x48 >= -1 ;
-1 x119 +1 x19 >= 0 ;
-1 x119 +1 x49 >= 0 ;
+1 x119 -1 x19 -1 x49 >= -1 ;
-1 x106 +1 x18 >= 0 ;
-1 x106 +1 x50 >= 0 ;
+1 x106 -1 x18 -1 x50 >= -1 ;
-1 x93 +1 x17 >= 0 ;
-1 x93 +1 x51 >= 0 ;
+1 x93 -1 x17 -1 x51 >= -1 ;
-1 x80 +1 x16 >= 0 ;
-1 x80 +1 x52 >= 0 ;
+1 x80 -1 x16 -1 x52 >= -1 ;
-1 x67 +1 x15 >= 0 ;
-1 x67 +1 x53 >= 0 ;
+1 x67 -1 x15 -1 x53 >= -1 ;
-1 x785 +1 x39 >= 0 ;
-1 x785 +1 x43 >= 0 ;
+1 x785 -1 x39 -1 x43 >= -1 ;
-1 x772 +1 x38 >= 0 ;
-1 x772 +1 x44 >= 0 ;
+1 x772 -1 x38 -1 x44 >= -1 ;
-1 x759 +1 x37 >= 0 ;
-1 x759 +1 x45 >= 0 ;
+1 x759 -1 x37 -1 x45 >= -1 ;
-1 x746 +1 x36 >= 0 ;
-1 x746 +1 x46 >= 0 ;
+1 x746 -1 x36 -1 x46 >= -1 ;
-1 x733 +1 x35 >= 0 ;
-1 x733 +1 x47 >= 0 ;
+1 x733 -1 x35 -1 x47 >= -1 ;
-1 x720 +1 x34 >= 0 ;
-1 x720 +1 x48 >= 0 ;
+1 x720 -1 x34 -1 x48 >= -1 ;
-1 x707 +1 x33 >= 0 ;
-1 x707 +1 x49 >= 0 ;
+1 x707 -1 x33 -1 x49 >= -1 ;
-1 x694 +1 x32 >= 0 ;
-1 x694 +1 x50 >= 0 ;
+1 x694 -1 x32 -1 x50 >= -1 ;
-1 x681 +1 x31 >= 0 ;
-1 x681 +1 x51 >= 0 ;
+1 x681 -1 x31 -1 x51 >= -1 ;
-1 x668 +1 x30 >= 0 ;
-1 x668 +1 x52 >= 0 ;
+1 x668 -1 x30 -1 x52 >= -1 ;
-1 x655 +1 x29 >= 0 ;
-1 x655 +1 x53 >= 0 ;
+1 x655 -1 x29 -1 x53 >= -1 ;
-1 x211 +1 x26 >= 0 ;
-1 x211 +1 x43 >= 0 ;
+1 x211 -1 x26 -1 x43 >= -1 ;
-1 x198 +1 x25 >= 0 ;
-1 x198 +1 x44 >= 0 ;
+1 x198 -1 x25 -1 x44 >= -1 ;
-1 x185 +1 x24 >= 0 ;
-1 x185 +1 x45 >= 0 ;
+1 x185 -1 x24 -1 x45 >= -1 ;
-1 x172 +1 x23 >= 0 ;
-1 x172 +1 x46 >= 0 ;
+1 x172 -1 x23 -1 x46 >= -1 ;
-1 x159 +1 x22 >= 0 ;
-1 x159 +1 x47 >= 0 ;
+1 x159 -1 x22 -1 x47 >= -1 ;
-1 x146 +1 x21 >= 0 ;
-1 x146 +1 x48 >= 0 ;
+1 x146 -1 x21 -1 x48 >= -1 ;
-1 x133 +1 x20 >= 0 ;
-1 x133 +1 x49 >= 0 ;
+1 x133 -1 x20 -1 x49 >= -1 ;
-1 x120 +1 x19 >= 0 ;
-1 x120 +1 x50 >= 0 ;
+1 x120 -1 x19 -1 x50 >= -1 ;
-1 x107 +1 x18 >= 0 ;
-1 x107 +1 x51 >= 0 ;
+1 x107 -1 x18 -1 x51 >= -1 ;
-1 x94 +1 x17 >= 0 ;
-1 x94 +1 x52 >= 0 ;
+1 x94 -1 x17 -1 x52 >= -1 ;
-1 x81 +1 x16 >= 0 ;
-1 x81 +1 x53 >= 0 ;
+1 x81 -1 x16 -1 x53 >= -1 ;
-1 x68 +1 x15 >= 0 ;
-1 x68 +1 x54 >= 0 ;
+1 x68 -1 x15 -1 x54 >= -1 ;
-1 x799 +1 x40 >= 0 ;
-1 x799 +1 x43 >= 0 ;
+1 x799 -1 x40 -1 x43 >= -1 ;
-1 x786 +1 x39 >= 0 ;
-1 x786 +1 x44 >= 0 ;
+1 x786 -1 x39 -1 x44 >= -1 ;
-1 x773 +1 x38 >= 0 ;
-1 x773 +1 x45 >= 0 ;
+1 x773 -1 x38 -1 x45 >= -1 ;
-1 x760 +1 x37 >= 0 ;
-1 x760 +1 x46 >= 0 ;
+1 x760 -1 x37 -1 x46 >= -1 ;
-1 x747 +1 x36 >= 0 ;
-1 x747 +1 x47 >= 0 ;
+1 x747 -1 x36 -1 x47 >= -1 ;
-1 x734 +1 x35 >= 0 ;
-1 x734 +1 x48 >= 0 ;
+1 x734 -1 x35 -1 x48 >= -1 ;
-1 x721 +1 x34 >= 0 ;
-1 x721 +1 x49 >= 0 ;
+1 x721 -1 x34 -1 x49 >= -1 ;
-1 x708 +1 x33 >= 0 ;
-1 x708 +1 x50 >= 0 ;
+1 x708 -1 x33 -1 x50 >= -1 ;
-1 x695 +1 x32 >= 0 ;
-1 x695 +1 x51 >= 0 ;
+1 x695 -1 x32 -1 x51 >= -1 ;
-1 x682 +1 x31 >= 0 ;
-1 x682 +1 x52 >= 0 ;
+1 x682 -1 x31 -1 x52 >= -1 ;
-1 x669 +1 x30 >= 0 ;
-1 x669 +1 x53 >= 0 ;
+1 x669 -1 x30 -1 x53 >= -1 ;
-1 x656 +1 x29 >= 0 ;
-1 x656 +1 x54 >= 0 ;
+1 x656 -1 x29 -1 x54 >= -1 ;
-1 x225 +1 x27 >= 0 ;
-1 x225 +1 x43 >= 0 ;
+1 x225 -1 x27 -1 x43 >= -1 ;
-1 x212 +1 x26 >= 0 ;
-1 x212 +1 x44 >= 0 ;
+1 x212 -1 x26 -1 x44 >= -1 ;
-1 x199 +1 x25 >= 0 ;
-1 x199 +1 x45 >= 0 ;
+1 x199 -1 x25 -1 x45 >= -1 ;
-1 x186 +1 x24 >= 0 ;
-1 x186 +1 x46 >= 0 ;
+1 x186 -1 x24 -1 x46 >= -1 ;
-1 x173 +1 x23 >= 0 ;
-1 x173 +1 x47 >= 0 ;
+1 x173 -1 x23 -1 x47 >= -1 ;
-1 x160 +1 x22 >= 0 ;
-1 x160 +1 x48 >= 0 ;
+1 x160 -1 x22 -1 x48 >= -1 ;
-1 x147 +1 x21 >= 0 ;
-1 x147 +1 x49 >= 0 ;
+1 x147 -1 x21 -1 x49 >= -1 ;
-1 x134 +1 x20 >= 0 ;
-1 x134 +1 x50 >= 0 ;
+1 x134 -1 x20 -1 x50 >= -1 ;
-1 x121 +1 x19 >= 0 ;
-1 x121 +1 x51 >= 0 ;
+1 x121 -1 x19 -1 x51 >= -1 ;
-1 x108 +1 x18 >= 0 ;
-1 x108 +1 x52 >= 0 ;
+1 x108 -1 x18 -1 x52 >= -1 ;
-1 x95 +1 x17 >= 0 ;
-1 x95 +1 x53 >= 0 ;
+1 x95 -1 x17 -1 x53 >= -1 ;
-1 x82 +1 x16 >= 0 ;
-1 x82 +1 x54 >= 0 ;
+1 x82 -1 x16 -1 x54 >= -1 ;
-1 x69 +1 x15 >= 0 ;
-1 x69 +1 x55 >= 0 ;
+1 x69 -1 x15 -1 x55 >= -1 ;
-1 x813 +1 x41 >= 0 ;
-1 x813 +1 x43 >= 0 ;
+1 x813 -1 x41 -1 x43 >= -1 ;
-1 x800 +1 x40 >= 0 ;
-1 x800 +1 x44 >= 0 ;
+1 x800 -1 x40 -1 x44 >= -1 ;
-1 x787 +1 x39 >= 0 ;
-1 x787 +1 x45 >= 0 ;
+1 x787 -1 x39 -1 x45 >= -1 ;
-1 x774 +1 x38 >= 0 ;
-1 x774 +1 x46 >= 0 ;
+1 x774 -1 x38 -1 x46 >= -1 ;
-1 x761 +1 x37 >= 0 ;
-1 x761 +1 x47 >= 0 ;
+1 x761 -1 x37 -1 x47 >= -1 ;
-1 x748 +1 x36 >= 0 ;
-1 x748 +1 x48 >= 0 ;
+1 x748 -1 x36 -1 x48 >= -1 ;
-1 x735 +1 x35 >= 0 ;
-1 x735 +1 x49 >= 0 ;
+1 x735 -1 x35 -1 x49 >= -1 ;
-1 x722 +1 x34 >= 0 ;
-1 x722 +1 x50 >= 0 ;
+1 x722 -1 x34 -1 x50 >= -1 ;
-1 x709 +1 x33 >= 0 ;
-1 x709 +1 x51 >= 0 ;
+1 x709 -1 x33 -1 x51 >= -1 ;
-1 x696 +1 x32 >= 0 ;
-1 x696 +1 x52 >= 0 ;
+1 x696 -1 x32 -1 x52 >= -1 ;
-1 x683 +1 x31 >= 0 ;
-1 x683 +1 x53 >= 0 ;
+1 x683 -1 x31 -1 x53 >= -1 ;
-1 x670 +1 x30 >= 0 ;
-1 x670 +1 x54 >= 0 ;
+1 x670 -1 x30 -1 x54 >= -1 ;
-1 x657 +1 x29 >= 0 ;
-1 x657 +1 x55 >= 0 ;
+1 x657 -1 x29 -1 x55 >= -1 ;
-1 x239 +1 x28 >= 0 ;
-1 x239 +1 x43 >= 0 ;
+1 x239 -1 x28 -1 x43 >= -1 ;
-1 x226 +1 x27 >= 0 ;
-1 x226 +1 x44 >= 0 ;
+1 x226 -1 x27 -1 x44 >= -1 ;
-1 x213 +1 x26 >= 0 ;
-1 x213 +1 x45 >= 0 ;
+1 x213 -1 x26 -1 x45 >= -1 ;
-1 x200 +1 x25 >= 0 ;
-1 x200 +1 x46 >= 0 ;
+1 x200 -1 x25 -1 x46 >= -1 ;
-1 x187 +1 x24 >= 0 ;
-1 x187 +1 x47 >= 0 ;
+1 x187 -1 x24 -1 x47 >= -1 ;
-1 x174 +1 x23 >= 0 ;
-1 x174 +1 x48 >= 0 ;
+1 x174 -1 x23 -1 x48 >= -1 ;
-1 x161 +1 x22 >= 0 ;
-1 x161 +1 x49 >= 0 ;
+1 x161 -1 x22 -1 x49 >= -1 ;
-1 x148 +1 x21 >= 0 ;
-1 x148 +1 x50 >= 0 ;
+1 x148 -1 x21 -1 x50 >= -1 ;
-1 x135 +1 x20 >= 0 ;
-1 x135 +1 x51 >= 0 ;
+1 x135 -1 x20 -1 x51 >= -1 ;
-1 x122 +1 x19 >= 0 ;
-1 x122 +1 x52 >= 0 ;
+1 x122 -1 x19 -1 x52 >= -1 ;
-1 x109 +1 x18 >= 0 ;
-1 x109 +1 x53 >= 0 ;
+1 x109 -1 x18 -1 x53 >= -1 ;
-1 x96 +1 x17 >= 0 ;
-1 x96 +1 x54 >= 0 ;
+1 x96 -1 x17 -1 x54 >= -1 ;
-1 x83 +1 x16 >= 0 ;
-1 x83 +1 x55 >= 0 ;
+1 x83 -1 x16 -1 x55 >= -1 ;
-1 x70 +1 x15 >= 0 ;
-1 x70 +1 x56 >= 0 ;
+1 x70 -1 x15 -1 x56 >= -1 ;
-1 x827 +1 x42 >= 0 ;
-1 x827 +1 x43 >= 0 ;
+1 x827 -1 x42 -1 x43 >= -1 ;
-1 x814 +1 x41 >= 0 ;
-1 x814 +1 x44 >= 0 ;
+1 x814 -1 x41 -1 x44 >= -1 ;
-1 x801 +1 x40 >= 0 ;
-1 x801 +1 x45 >= 0 ;
+1 x801 -1 x40 -1 x45 >= -1 ;
-1 x788 +1 x39 >= 0 ;
-1 x788 +1 x46 >= 0 ;
+1 x788 -1 x39 -1 x46 >= -1 ;
-1 x775 +1 x38 >= 0 ;
-1 x775 +1 x47 >= 0 ;
+1 x775 -1 x38 -1 x47 >= -1 ;
-1 x762 +1 x37 >= 0 ;
-1 x762 +1 x48 >= 0 ;
+1 x762 -1 x37 -1 x48 >= -1 ;
-1 x749 +1 x36 >= 0 ;
-1 x749 +1 x49 >= 0 ;
+1 x749 -1 x36 -1 x49 >= -1 ;
-1 x736 +1 x35 >= 0 ;
-1 x736 +1 x50 >= 0 ;
+1 x736 -1 x35 -1 x50 >= -1 ;
-1 x723 +1 x34 >= 0 ;
-1 x723 +1 x51 >= 0 ;
+1 x723 -1 x34 -1 x51 >= -1 ;
-1 x710 +1 x33 >= 0 ;
-1 x710 +1 x52 >= 0 ;
+1 x710 -1 x33 -1 x52 >= -1 ;
-1 x697 +1 x32 >= 0 ;
-1 x697 +1 x53 >= 0 ;
+1 x697 -1 x32 -1 x53 >= -1 ;
-1 x684 +1 x31 >= 0 ;
-1 x684 +1 x54 >= 0 ;
+1 x684 -1 x31 -1 x54 >= -1 ;
-1 x671 +1 x30 >= 0 ;
-1 x671 +1 x55 >= 0 ;
+1 x671 -1 x30 -1 x55 >= -1 ;
-1 x658 +1 x29 >= 0 ;
-1 x658 +1 x56 >= 0 ;
+1 x658 -1 x29 -1 x56 >= -1 ;
-1 x240 +1 x28 >= 0 ;
-1 x240 +1 x44 >= 0 ;
+1 x240 -1 x28 -1 x44 >= -1 ;
-1 x227 +1 x27 >= 0 ;
-1 x227 +1 x45 >= 0 ;
+1 x227 -1 x27 -1 x45 >= -1 ;
-1 x214 +1 x26 >= 0 ;
-1 x214 +1 x46 >= 0 ;
+1 x214 -1 x26 -1 x46 >= -1 ;
-1 x201 +1 x25 >= 0 ;
-1 x201 +1 x47 >= 0 ;
+1 x201 -1 x25 -1 x47 >= -1 ;
-1 x188 +1 x24 >= 0 ;
-1 x188 +1 x48 >= 0 ;
+1 x188 -1 x24 -1 x48 >= -1 ;
-1 x175 +1 x23 >= 0 ;
-1 x175 +1 x49 >= 0 ;
+1 x175 -1 x23 -1 x49 >= -1 ;
-1 x162 +1 x22 >= 0 ;
-1 x162 +1 x50 >= 0 ;
+1 x162 -1 x22 -1 x50 >= -1 ;
-1 x149 +1 x21 >= 0 ;
-1 x149 +1 x51 >= 0 ;
+1 x149 -1 x21 -1 x51 >= -1 ;
-1 x136 +1 x20 >= 0 ;
-1 x136 +1 x52 >= 0 ;
+1 x136 -1 x20 -1 x52 >= -1 ;
-1 x123 +1 x19 >= 0 ;
-1 x123 +1 x53 >= 0 ;
+1 x123 -1 x19 -1 x53 >= -1 ;
-1 x110 +1 x18 >= 0 ;
-1 x110 +1 x54 >= 0 ;
+1 x110 -1 x18 -1 x54 >= -1 ;
-1 x97 +1 x17 >= 0 ;
-1 x97 +1 x55 >= 0 ;
+1 x97 -1 x17 -1 x55 >= -1 ;
-1 x84 +1 x16 >= 0 ;
-1 x84 +1 x56 >= 0 ;
+1 x84 -1 x16 -1 x56 >= -1 ;
-1 x828 +1 x42 >= 0 ;
-1 x828 +1 x44 >= 0 ;
+1 x828 -1 x42 -1 x44 >= -1 ;
-1 x815 +1 x41 >= 0 ;
-1 x815 +1 x45 >= 0 ;
+1 x815 -1 x41 -1 x45 >= -1 ;
-1 x802 +1 x40 >= 0 ;
-1 x802 +1 x46 >= 0 ;
+1 x802 -1 x40 -1 x46 >= -1 ;
-1 x789 +1 x39 >= 0 ;
-1 x789 +1 x47 >= 0 ;
+1 x789 -1 x39 -1 x47 >= -1 ;
-1 x776 +1 x38 >= 0 ;
-1 x776 +1 x48 >= 0 ;
+1 x776 -1 x38 -1 x48 >= -1 ;
-1 x763 +1 x37 >= 0 ;
-1 x763 +1 x49 >= 0 ;
+1 x763 -1 x37 -1 x49 >= -1 ;
-1 x750 +1 x36 >= 0 ;
-1 x750 +1 x50 >= 0 ;
+1 x750 -1 x36 -1 x50 >= -1 ;
-1 x737 +1 x35 >= 0 ;
-1 x737 +1 x51 >= 0 ;
+1 x737 -1 x35 -1 x51 >= -1 ;
-1 x724 +1 x34 >= 0 ;
-1 x724 +1 x52 >= 0 ;
+1 x724 -1 x34 -1 x52 >= -1 ;
-1 x711 +1 x33 >= 0 ;
-1 x711 +1 x53 >= 0 ;
+1 x711 -1 x33 -1 x53 >= -1 ;
-1 x698 +1 x32 >= 0 ;
-1 x698 +1 x54 >= 0 ;
+1 x698 -1 x32 -1 x54 >= -1 ;
-1 x685 +1 x31 >= 0 ;
-1 x685 +1 x55 >= 0 ;
+1 x685 -1 x31 -1 x55 >= -1 ;
-1 x672 +1 x30 >= 0 ;
-1 x672 +1 x56 >= 0 ;
+1 x672 -1 x30 -1 x56 >= -1 ;
-1 x241 +1 x28 >= 0 ;
-1 x241 +1 x45 >= 0 ;
+1 x241 -1 x28 -1 x45 >= -1 ;
-1 x228 +1 x27 >= 0 ;
-1 x228 +1 x46 >= 0 ;
+1 x228 -1 x27 -1 x46 >= -1 ;
-1 x215 +1 x26 >= 0 ;
-1 x215 +1 x47 >= 0 ;
+1 x215 -1 x26 -1 x47 >= -1 ;
-1 x202 +1 x25 >= 0 ;
-1 x202 +1 x48 >= 0 ;
+1 x202 -1 x25 -1 x48 >= -1 ;
-1 x189 +1 x24 >= 0 ;
-1 x189 +1 x49 >= 0 ;
+1 x189 -1 x24 -1 x49 >= -1 ;
-1 x176 +1 x23 >= 0 ;
-1 x176 +1 x50 >= 0 ;
+1 x176 -1 x23 -1 x50 >= -1 ;
-1 x163 +1 x22 >= 0 ;
-1 x163 +1 x51 >= 0 ;
+1 x163 -1 x22 -1 x51 >= -1 ;
-1 x150 +1 x21 >= 0 ;
-1 x150 +1 x52 >= 0 ;
+1 x150 -1 x21 -1 x52 >= -1 ;
-1 x137 +1 x20 >= 0 ;
-1 x137 +1 x53 >= 0 ;
+1 x137 -1 x20 -1 x53 >= -1 ;
-1 x124 +1 x19 >= 0 ;
-1 x124 +1 x54 >= 0 ;
+1 x124 -1 x19 -1 x54 >= -1 ;
-1 x111 +1 x18 >= 0 ;
-1 x111 +1 x55 >= 0 ;
+1 x111 -1 x18 -1 x55 >= -1 ;
-1 x98 +1 x17 >= 0 ;
-1 x98 +1 x56 >= 0 ;
+1 x98 -1 x17 -1 x56 >= -1 ;
-1 x829 +1 x42 >= 0 ;
-1 x829 +1 x45 >= 0 ;
+1 x829 -1 x42 -1 x45 >= -1 ;
-1 x816 +1 x41 >= 0 ;
-1 x816 +1 x46 >= 0 ;
+1 x816 -1 x41 -1 x46 >= -1 ;
-1 x803 +1 x40 >= 0 ;
-1 x803 +1 x47 >= 0 ;
+1 x803 -1 x40 -1 x47 >= -1 ;
-1 x790 +1 x39 >= 0 ;
-1 x790 +1 x48 >= 0 ;
+1 x790 -1 x39 -1 x48 >= -1 ;
-1 x777 +1 x38 >= 0 ;
-1 x777 +1 x49 >= 0 ;
+1 x777 -1 x38 -1 x49 >= -1 ;
-1 x764 +1 x37 >= 0 ;
-1 x764 +1 x50 >= 0 ;
+1 x764 -1 x37 -1 x50 >= -1 ;
-1 x751 +1 x36 >= 0 ;
-1 x751 +1 x51 >= 0 ;
+1 x751 -1 x36 -1 x51 >= -1 ;
-1 x738 +1 x35 >= 0 ;
-1 x738 +1 x52 >= 0 ;
+1 x738 -1 x35 -1 x52 >= -1 ;
-1 x725 +1 x34 >= 0 ;
-1 x725 +1 x53 >= 0 ;
+1 x725 -1 x34 -1 x53 >= -1 ;
-1 x712 +1 x33 >= 0 ;
-1 x712 +1 x54 >= 0 ;
+1 x712 -1 x33 -1 x54 >= -1 ;
-1 x699 +1 x32 >= 0 ;
-1 x699 +1 x55 >= 0 ;
+1 x699 -1 x32 -1 x55 >= -1 ;
-1 x686 +1 x31 >= 0 ;
-1 x686 +1 x56 >= 0 ;
+1 x686 -1 x31 -1 x56 >= -1 ;
-1 x242 +1 x28 >= 0 ;
-1 x242 +1 x46 >= 0 ;
+1 x242 -1 x28 -1 x46 >= -1 ;
-1 x229 +1 x27 >= 0 ;
-1 x229 +1 x47 >= 0 ;
+1 x229 -1 x27 -1 x47 >= -1 ;
-1 x216 +1 x26 >= 0 ;
-1 x216 +1 x48 >= 0 ;
+1 x216 -1 x26 -1 x48 >= -1 ;
-1 x203 +1 x25 >= 0 ;
-1 x203 +1 x49 >= 0 ;
+1 x203 -1 x25 -1 x49 >= -1 ;
-1 x190 +1 x24 >= 0 ;
-1 x190 +1 x50 >= 0 ;
+1 x190 -1 x24 -1 x50 >= -1 ;
-1 x177 +1 x23 >= 0 ;
-1 x177 +1 x51 >= 0 ;
+1 x177 -1 x23 -1 x51 >= -1 ;
-1 x164 +1 x22 >= 0 ;
-1 x164 +1 x52 >= 0 ;
+1 x164 -1 x22 -1 x52 >= -1 ;
-1 x151 +1 x21 >= 0 ;
-1 x151 +1 x53 >= 0 ;
+1 x151 -1 x21 -1 x53 >= -1 ;
-1 x138 +1 x20 >= 0 ;
-1 x138 +1 x54 >= 0 ;
+1 x138 -1 x20 -1 x54 >= -1 ;
-1 x125 +1 x19 >= 0 ;
-1 x125 +1 x55 >= 0 ;
+1 x125 -1 x19 -1 x55 >= -1 ;
-1 x112 +1 x18 >= 0 ;
-1 x112 +1 x56 >= 0 ;
+1 x112 -1 x18 -1 x56 >= -1 ;
-1 x830 +1 x42 >= 0 ;
-1 x830 +1 x46 >= 0 ;
+1 x830 -1 x42 -1 x46 >= -1 ;
-1 x817 +1 x41 >= 0 ;
-1 x817 +1 x47 >= 0 ;
+1 x817 -1 x41 -1 x47 >= -1 ;
-1 x804 +1 x40 >= 0 ;
-1 x804 +1 x48 >= 0 ;
+1 x804 -1 x40 -1 x48 >= -1 ;
-1 x791 +1 x39 >= 0 ;
-1 x791 +1 x49 >= 0 ;
+1 x791 -1 x39 -1 x49 >= -1 ;
-1 x778 +1 x38 >= 0 ;
-1 x778 +1 x50 >= 0 ;
+1 x778 -1 x38 -1 x50 >= -1 ;
-1 x765 +1 x37 >= 0 ;
-1 x765 +1 x51 >= 0 ;
+1 x765 -1 x37 -1 x51 >= -1 ;
-1 x752 +1 x36 >= 0 ;
-1 x752 +1 x52 >= 0 ;
+1 x752 -1 x36 -1 x52 >= -1 ;
-1 x739 +1 x35 >= 0 ;
-1 x739 +1 x53 >= 0 ;
+1 x739 -1 x35 -1 x53 >= -1 ;
-1 x726 +1 x34 >= 0 ;
-1 x726 +1 x54 >= 0 ;
+1 x726 -1 x34 -1 x54 >= -1 ;
-1 x713 +1 x33 >= 0 ;
-1 x713 +1 x55 >= 0 ;
+1 x713 -1 x33 -1 x55 >= -1 ;
-1 x700 +1 x32 >= 0 ;
-1 x700 +1 x56 >= 0 ;
+1 x700 -1 x32 -1 x56 >= -1 ;
-1 x243 +1 x28 >= 0 ;
-1 x243 +1 x47 >= 0 ;
+1 x243 -1 x28 -1 x47 >= -1 ;
-1 x230 +1 x27 >= 0 ;
-1 x230 +1 x48 >= 0 ;
+1 x230 -1 x27 -1 x48 >= -1 ;
-1 x217 +1 x26 >= 0 ;
-1 x217 +1 x49 >= 0 ;
+1 x217 -1 x26 -1 x49 >= -1 ;
-1 x204 +1 x25 >= 0 ;
-1 x204 +1 x50 >= 0 ;
+1 x204 -1 x25 -1 x50 >= -1 ;
-1 x191 +1 x24 >= 0 ;
-1 x191 +1 x51 >= 0 ;
+1 x191 -1 x24 -1 x51 >= -1 ;
-1 x178 +1 x23 >= 0 ;
-1 x178 +1 x52 >= 0 ;
+1 x178 -1 x23 -1 x52 >= -1 ;
-1 x165 +1 x22 >= 0 ;
-1 x165 +1 x53 >= 0 ;
+1 x165 -1 x22 -1 x53 >= -1 ;
-1 x152 +1 x21 >= 0 ;
-1 x152 +1 x54 >= 0 ;
+1 x152 -1 x21 -1 x54 >= -1 ;
-1 x139 +1 x20 >= 0 ;
-1 x139 +1 x55 >= 0 ;
+1 x139 -1 x20 -1 x55 >= -1 ;
-1 x126 +1 x19 >= 0 ;
-1 x126 +1 x56 >= 0 ;
+1 x126 -1 x19 -1 x56 >= -1 ;
-1 x831 +1 x42 >= 0 ;
-1 x831 +1 x47 >= 0 ;
+1 x831 -1 x42 -1 x47 >= -1 ;
-1 x818 +1 x41 >= 0 ;
-1 x818 +1 x48 >= 0 ;
+1 x818 -1 x41 -1 x48 >= -1 ;
-1 x805 +1 x40 >= 0 ;
-1 x805 +1 x49 >= 0 ;
+1 x805 -1 x40 -1 x49 >= -1 ;
-1 x792 +1 x39 >= 0 ;
-1 x792 +1 x50 >= 0 ;
+1 x792 -1 x39 -1 x50 >= -1 ;
-1 x779 +1 x38 >= 0 ;
-1 x779 +1 x51 >= 0 ;
+1 x779 -1 x38 -1 x51 >= -1 ;
-1 x766 +1 x37 >= 0 ;
-1 x766 +1 x52 >= 0 ;
+1 x766 -1 x37 -1 x52 >= -1 ;
-1 x753 +1 x36 >= 0 ;
-1 x753 +1 x53 >= 0 ;
+1 x753 -1 x36 -1 x53 >= -1 ;
-1 x740 +1 x35 >= 0 ;
-1 x740 +1 x54 >= 0 ;
+1 x740 -1 x35 -1 x54 >= -1 ;
-1 x727 +1 x34 >= 0 ;
-1 x727 +1 x55 >= 0 ;
+1 x727 -1 x34 -1 x55 >= -1 ;
-1 x714 +1 x33 >= 0 ;
-1 x714 +1 x56 >= 0 ;
+1 x714 -1 x33 -1 x56 >= -1 ;
-1 x244 +1 x28 >= 0 ;
-1 x244 +1 x48 >= 0 ;
+1 x244 -1 x28 -1 x48 >= -1 ;
-1 x231 +1 x27 >= 0 ;
-1 x231 +1 x49 >= 0 ;
+1 x231 -1 x27 -1 x49 >= -1 ;
-1 x218 +1 x26 >= 0 ;
-1 x218 +1 x50 >= 0 ;
+1 x218 -1 x26 -1 x50 >= -1 ;
-1 x205 +1 x25 >= 0 ;
-1 x205 +1 x51 >= 0 ;
+1 x205 -1 x25 -1 x51 >= -1 ;
-1 x192 +1 x24 >= 0 ;
-1 x192 +1 x52 >= 0 ;
+1 x192 -1 x24 -1 x52 >= -1 ;
-1 x179 +1 x23 >= 0 ;
-1 x179 +1 x53 >= 0 ;
+1 x179 -1 x23 -1 x53 >= -1 ;
-1 x166 +1 x22 >= 0 ;
-1 x166 +1 x54 >= 0 ;
+1 x166 -1 x22 -1 x54 >= -1 ;
-1 x153 +1 x21 >= 0 ;
-1 x153 +1 x55 >= 0 ;
+1 x153 -1 x21 -1 x55 >= -1 ;
-1 x140 +1 x20 >= 0 ;
-1 x140 +1 x56 >= 0 ;
+1 x140 -1 x20 -1 x56 >= -1 ;
-1 x832 +1 x42 >= 0 ;
-1 x832 +1 x48 >= 0 ;
+1 x832 -1 x42 -1 x48 >= -1 ;
-1 x819 +1 x41 >= 0 ;
-1 x819 +1 x49 >= 0 ;
+1 x819 -1 x41 -1 x49 >= -1 ;
-1 x806 +1 x40 >= 0 ;
-1 x806 +1 x50 >= 0 ;
+1 x806 -1 x40 -1 x50 >= -1 ;
-1 x793 +1 x39 >= 0 ;
-1 x793 +1 x51 >= 0 ;
+1 x793 -1 x39 -1 x51 >= -1 ;
-1 x780 +1 x38 >= 0 ;
-1 x780 +1 x52 >= 0 ;
+1 x780 -1 x38 -1 x52 >= -1 ;
-1 x767 +1 x37 >= 0 ;
-1 x767 +1 x53 >= 0 ;
+1 x767 -1 x37 -1 x53 >= -1 ;
-1 x754 +1 x36 >= 0 ;
-1 x754 +1 x54 >= 0 ;
+1 x754 -1 x36 -1 x54 >= -1 ;
-1 x741 +1 x35 >= 0 ;
-1 x741 +1 x55 >= 0 ;
+1 x741 -1 x35 -1 x55 >= -1 ;
-1 x728 +1 x34 >= 0 ;
-1 x728 +1 x56 >= 0 ;
+1 x728 -1 x34 -1 x56 >= -1 ;
-1 x245 +1 x28 >= 0 ;
-1 x245 +1 x49 >= 0 ;
+1 x245 -1 x28 -1 x49 >= -1 ;
-1 x232 +1 x27 >= 0 ;
-1 x232 +1 x50 >= 0 ;
+1 x232 -1 x27 -1 x50 >= -1 ;
-1 x219 +1 x26 >= 0 ;
-1 x219 +1 x51 >= 0 ;
+1 x219 -1 x26 -1 x51 >= -1 ;
-1 x206 +1 x25 >= 0 ;
-1 x206 +1 x52 >= 0 ;
+1 x206 -1 x25 -1 x52 >= -1 ;
-1 x193 +1 x24 >= 0 ;
-1 x193 +1 x53 >= 0 ;
+1 x193 -1 x24 -1 x53 >= -1 ;
-1 x180 +1 x23 >= 0 ;
-1 x180 +1 x54 >= 0 ;
+1 x180 -1 x23 -1 x54 >= -1 ;
-1 x167 +1 x22 >= 0 ;
-1 x167 +1 x55 >= 0 ;
+1 x167 -1 x22 -1 x55 >= -1 ;
-1 x154 +1 x21 >= 0 ;
-1 x154 +1 x56 >= 0 ;
+1 x154 -1 x21 -1 x56 >= -1 ;
-1 x833 +1 x42 >= 0 ;
-1 x833 +1 x49 >= 0 ;
+1 x833 -1 x42 -1 x49 >= -1 ;
-1 x820 +1 x41 >= 0 ;
-1 x820 +1 x50 >= 0 ;
+1 x820 -1 x41 -1 x50 >= -1 ;
-1 x807 +1 x40 >= 0 ;
-1 x807 +1 x51 >= 0 ;
+1 x807 -1 x40 -1 x51 >= -1 ;
-1 x794 +1 x39 >= 0 ;
-1 x794 +1 x52 >= 0 ;
+1 x794 -1 x39 -1 x52 >= -1 ;
-1 x781 +1 x38 >= 0 ;
-1 x781 +1 x53 >= 0 ;
+1 x781 -1 x38 -1 x53 >= -1 ;
-1 x768 +1 x37 >= 0 ;
-1 x768 +1 x54 >= 0 ;
+1 x768 -1 x37 -1 x54 >= -1 ;
-1 x755 +1 x36 >= 0 ;
-1 x755 +1 x55 >= 0 ;
+1 x755 -1 x36 -1 x55 >= -1 ;
-1 x742 +1 x35 >= 0 ;
-1 x742 +1 x56 >= 0 ;
+1 x742 -1 x35 -1 x56 >= -1 ;
-1 x246 +1 x28 >= 0 ;
-1 x246 +1 x50 >= 0 ;
+1 x246 -1 x28 -1 x50 >= -1 ;
-1 x233 +1 x27 >= 0 ;
-1 x233 +1 x51 >= 0 ;
+1 x233 -1 x27 -1 x51 >= -1 ;
-1 x220 +1 x26 >= 0 ;
-1 x220 +1 x52 >= 0 ;
+1 x220 -1 x26 -1 x52 >= -1 ;
-1 x207 +1 x25 >= 0 ;
-1 x207 +1 x53 >= 0 ;
+1 x207 -1 x25 -1 x53 >= -1 ;
-1 x194 +1 x24 >= 0 ;
-1 x194 +1 x54 >= 0 ;
+1 x194 -1 x24 -1 x54 >= -1 ;
-1 x181 +1 x23 >= 0 ;
-1 x181 +1 x55 >= 0 ;
+1 x181 -1 x23 -1 x55 >= -1 ;
-1 x168 +1 x22 >= 0 ;
-1 x168 +1 x56 >= 0 ;
+1 x168 -1 x22 -1 x56 >= -1 ;
-1 x834 +1 x42 >= 0 ;
-1 x834 +1 x50 >= 0 ;
+1 x834 -1 x42 -1 x50 >= -1 ;
-1 x821 +1 x41 >= 0 ;
-1 x821 +1 x51 >= 0 ;
+1 x821 -1 x41 -1 x51 >= -1 ;
-1 x808 +1 x40 >= 0 ;
-1 x808 +1 x52 >= 0 ;
+1 x808 -1 x40 -1 x52 >= -1 ;
-1 x795 +1 x39 >= 0 ;
-1 x795 +1 x53 >= 0 ;
+1 x795 -1 x39 -1 x53 >= -1 ;
-1 x782 +1 x38 >= 0 ;
-1 x782 +1 x54 >= 0 ;
+1 x782 -1 x38 -1 x54 >= -1 ;
-1 x769 +1 x37 >= 0 ;
-1 x769 +1 x55 >= 0 ;
+1 x769 -1 x37 -1 x55 >= -1 ;
-1 x756 +1 x36 >= 0 ;
-1 x756 +1 x56 >= 0 ;
+1 x756 -1 x36 -1 x56 >= -1 ;
-1 x247 +1 x28 >= 0 ;
-1 x247 +1 x51 >= 0 ;
+1 x247 -1 x28 -1 x51 >= -1 ;
-1 x234 +1 x27 >= 0 ;
-1 x234 +1 x52 >= 0 ;
+1 x234 -1 x27 -1 x52 >= -1 ;
-1 x221 +1 x26 >= 0 ;
-1 x221 +1 x53 >= 0 ;
+1 x221 -1 x26 -1 x53 >= -1 ;
-1 x208 +1 x25 >= 0 ;
-1 x208 +1 x54 >= 0 ;
+1 x208 -1 x25 -1 x54 >= -1 ;
-1 x195 +1 x24 >= 0 ;
-1 x195 +1 x55 >= 0 ;
+1 x195 -1 x24 -1 x55 >= -1 ;
-1 x182 +1 x23 >= 0 ;
-1 x182 +1 x56 >= 0 ;
+1 x182 -1 x23 -1 x56 >= -1 ;
-1 x835 +1 x42 >= 0 ;
-1 x835 +1 x51 >= 0 ;
+1 x835 -1 x42 -1 x51 >= -1 ;
-1 x822 +1 x41 >= 0 ;
-1 x822 +1 x52 >= 0 ;
+1 x822 -1 x41 -1 x52 >= -1 ;
-1 x809 +1 x40 >= 0 ;
-1 x809 +1 x53 >= 0 ;
+1 x809 -1 x40 -1 x53 >= -1 ;
-1 x796 +1 x39 >= 0 ;
-1 x796 +1 x54 >= 0 ;
+1 x796 -1 x39 -1 x54 >= -1 ;
-1 x783 +1 x38 >= 0 ;
-1 x783 +1 x55 >= 0 ;
+1 x783 -1 x38 -1 x55 >= -1 ;
-1 x770 +1 x37 >= 0 ;
-1 x770 +1 x56 >= 0 ;
+1 x770 -1 x37 -1 x56 >= -1 ;
-1 x248 +1 x28 >= 0 ;
-1 x248 +1 x52 >= 0 ;
+1 x248 -1 x28 -1 x52 >= -1 ;
-1 x235 +1 x27 >= 0 ;
-1 x235 +1 x53 >= 0 ;
+1 x235 -1 x27 -1 x53 >= -1 ;
-1 x222 +1 x26 >= 0 ;
-1 x222 +1 x54 >= 0 ;
+1 x222 -1 x26 -1 x54 >= -1 ;
-1 x209 +1 x25 >= 0 ;
-1 x209 +1 x55 >= 0 ;
+1 x209 -1 x25 -1 x55 >= -1 ;
-1 x196 +1 x24 >= 0 ;
-1 x196 +1 x56 >= 0 ;
+1 x196 -1 x24 -1 x56 >= -1 ;
-1 x836 +1 x42 >= 0 ;
-1 x836 +1 x52 >= 0 ;
+1 x836 -1 x42 -1 x52 >= -1 ;
-1 x823 +1 x41 >= 0 ;
-1 x823 +1 x53 >= 0 ;
+1 x823 -1 x41 -1 x53 >= -1 ;
-1 x810 +1 x40 >= 0 ;
-1 x810 +1 x54 >= 0 ;
+1 x810 -1 x40 -1 x54 >= -1 ;
-1 x797 +1 x39 >= 0 ;
-1 x797 +1 x55 >= 0 ;
+1 x797 -1 x39 -1 x55 >= -1 ;
-1 x784 +1 x38 >= 0 ;
-1 x784 +1 x56 >= 0 ;
+1 x784 -1 x38 -1 x56 >= -1 ;
-1 x249 +1 x28 >= 0 ;
-1 x249 +1 x53 >= 0 ;
+1 x249 -1 x28 -1 x53 >= -1 ;
-1 x236 +1 x27 >= 0 ;
-1 x236 +1 x54 >= 0 ;
+1 x236 -1 x27 -1 x54 >= -1 ;
-1 x223 +1 x26 >= 0 ;
-1 x223 +1 x55 >= 0 ;
+1 x223 -1 x26 -1 x55 >= -1 ;
-1 x210 +1 x25 >= 0 ;
-1 x210 +1 x56 >= 0 ;
+1 x210 -1 x25 -1 x56 >= -1 ;
-1 x837 +1 x42 >= 0 ;
-1 x837 +1 x53 >= 0 ;
+1 x837 -1 x42 -1 x53 >= -1 ;
-1 x824 +1 x41 >= 0 ;
-1 x824 +1 x54 >= 0 ;
+1 x824 -1 x41 -1 x54 >= -1 ;
-1 x811 +1 x40 >= 0 ;
-1 x811 +1 x55 >= 0 ;
+1 x811 -1 x40 -1 x55 >= -1 ;
-1 x798 +1 x39 >= 0 ;
-1 x798 +1 x56 >= 0 ;
+1 x798 -1 x39 -1 x56 >= -1 ;
-1 x250 +1 x28 >= 0 ;
-1 x250 +1 x54 >= 0 ;
+1 x250 -1 x28 -1 x54 >= -1 ;
-1 x237 +1 x27 >= 0 ;
-1 x237 +1 x55 >= 0 ;
+1 x237 -1 x27 -1 x55 >= -1 ;
-1 x224 +1 x26 >= 0 ;
-1 x224 +1 x56 >= 0 ;
+1 x224 -1 x26 -1 x56 >= -1 ;
-1 x838 +1 x42 >= 0 ;
-1 x838 +1 x54 >= 0 ;
+1 x838 -1 x42 -1 x54 >= -1 ;
-1 x825 +1 x41 >= 0 ;
-1 x825 +1 x55 >= 0 ;
+1 x825 -1 x41 -1 x55 >= -1 ;
-1 x812 +1 x40 >= 0 ;
-1 x812 +1 x56 >= 0 ;
+1 x812 -1 x40 -1 x56 >= -1 ;
-1 x251 +1 x28 >= 0 ;
-1 x251 +1 x55 >= 0 ;
+1 x251 -1 x28 -1 x55 >= -1 ;
-1 x238 +1 x27 >= 0 ;
-1 x238 +1 x56 >= 0 ;
+1 x238 -1 x27 -1 x56 >= -1 ;
-1 x839 +1 x42 >= 0 ;
-1 x839 +1 x55 >= 0 ;
+1 x839 -1 x42 -1 x55 >= -1 ;
-1 x826 +1 x41 >= 0 ;
-1 x826 +1 x56 >= 0 ;
+1 x826 -1 x41 -1 x56 >= -1 ;
-1 x252 +1 x28 >= 0 ;
-1 x252 +1 x56 >= 0 ;
+1 x252 -1 x28 -1 x56 >= -1 ;
-1 x840 +1 x42 >= 0 ;
-1 x840 +1 x56 >= 0 ;
+1 x840 -1 x42 -1 x56 >= -1 ;
